p tw 158 488
0 1
0 2
0 52
0 53
0 73
0 91
0 113
0 122
1 2
1 3
1 4
2 48
2 54
2 85
3 4
3 53
3 54
3 55
3 56
3 57
3 58
4 48
4 49
4 50
4 51
4 52
5 6
5 7
5 45
5 98
5 110
5 132
5 138
5 145
6 7
6 111
6 149
7 109
7 139
8 9
8 10
8 12
8 39
8 64
9 10
9 11
9 23
9 40
9 65
10 42
10 153
10 154
11 12
11 23
11 40
11 65
12 39
12 64
13 14
13 25
13 31
13 93
13 94
14 30
14 107
15 16
15 17
15 67
16 17
16 66
16 153
16 155
16 156
17 68
18 19
18 75
18 125
18 136
18 155
19 76
19 92
20 21
20 22
20 23
20 43
20 78
20 118
20 144
20 145
20 146
21 22
21 23
21 79
21 138
22 23
22 63
22 80
22 109
22 110
22 111
23 40
23 65
24 25
24 26
24 28
25 26
25 31
25 93
25 94
26 29
26 100
26 133
27 28
27 29
27 30
27 31
27 104
27 130
27 142
27 143
28 29
28 30
28 31
29 30
29 31
29 100
29 133
30 31
30 107
31 93
31 94
32 33
32 124
32 125
33 69
33 92
33 136
33 137
34 35
34 36
34 37
34 38
34 57
34 71
34 81
34 119
34 129
35 36
35 37
35 38
35 58
35 103
36 37
36 38
36 55
36 61
36 86
36 87
36 88
37 38
37 56
37 70
37 150
38 102
38 135
38 141
38 144
38 147
39 40
39 41
39 42
39 43
39 44
39 64
40 41
40 42
40 43
40 44
40 65
41 42
41 43
41 44
41 117
42 43
42 44
42 153
42 154
43 44
43 78
43 118
43 144
43 145
43 146
44 86
44 116
44 140
44 141
45 46
45 47
45 98
45 110
45 132
45 138
45 145
46 47
46 97
47 99
47 128
48 49
48 50
48 51
48 52
48 54
48 85
49 50
49 51
49 52
49 83
49 121
50 51
50 52
50 74
50 152
51 52
51 72
51 151
52 53
52 73
52 91
52 113
52 122
53 54
53 55
53 56
53 57
53 58
53 73
53 91
53 113
53 122
54 55
54 56
54 57
54 58
54 85
55 56
55 57
55 58
55 61
55 86
55 87
55 88
56 57
56 58
56 70
56 150
57 58
57 71
57 81
57 119
57 129
58 103
59 60
59 61
59 62
59 75
59 76
59 77
60 61
60 62
60 123
61 62
61 86
61 87
61 88
62 140
62 146
63 64
63 65
63 80
63 109
63 110
63 111
64 65
66 67
66 68
66 69
66 153
66 155
66 156
67 68
67 69
68 69
69 92
69 136
69 137
70 71
70 150
71 81
71 119
71 129
72 73
72 74
72 151
73 74
73 91
73 113
73 122
74 152
75 76
75 77
75 125
75 136
75 155
76 77
76 92
77 88
77 114
77 122
77 123
78 79
78 80
78 118
78 144
78 145
78 146
79 80
79 138
80 109
80 110
80 111
81 82
81 83
81 84
81 85
81 119
81 129
82 83
82 84
82 85
82 95
82 96
83 84
83 85
83 121
84 85
84 120
86 87
86 88
86 116
86 140
86 141
87 88
87 150
88 114
88 122
88 123
89 90
89 91
89 108
90 91
90 112
90 114
91 113
91 122
92 136
92 137
93 94
93 131
93 143
93 148
94 107
95 96
95 119
95 120
95 121
96 127
96 129
96 130
97 98
97 99
98 99
98 110
98 132
98 138
98 145
99 128
100 101
100 102
100 103
100 133
101 102
101 103
101 134
102 103
102 135
102 141
102 144
102 147
104 105
104 106
104 130
104 142
104 143
105 106
105 131
106 148
108 112
108 113
109 110
109 111
109 139
110 111
110 132
110 138
110 145
111 149
112 113
112 114
113 122
114 122
114 123
115 116
115 117
115 118
115 147
116 117
116 118
116 140
116 141
117 118
118 144
118 145
118 146
119 120
119 121
119 129
120 121
122 123
124 125
124 137
125 136
125 155
126 127
126 142
127 129
127 130
128 132
128 133
128 134
128 135
129 130
130 142
130 143
131 143
131 148
132 133
132 134
132 135
132 138
132 145
133 134
133 135
134 135
135 141
135 144
135 147
136 137
136 155
138 145
139 149
140 141
140 146
141 144
141 147
142 143
143 148
144 145
144 146
144 147
145 146
151 152
153 154
153 155
153 156
154 157
155 156
156 157
